<number of tasks>
50

<cycle time>
1000

<order strength>
0.595


<task times>
1 76
2 83
3 149
4 270
5 200
6 142
7 127
8 241
9 154
10 52
11 127
12 199
13 131
14 31
15 144
16 29
17 66
18 47
19 187
20 157
21 232
22 323
23 113
24 77
25 194
26 145
27 117
28 168
29 142
30 74
31 62
32 184
33 63
34 59
35 300
36 52
37 224
38 37
39 398
40 213
41 126
42 83
43 198
44 30
45 80
46 78
47 132
48 138
49 135
50 121

<precedence relations>
1,39
2,5
2,6
3,5
3,6
4,5
4,6
5,22
6,7
6,8
6,9
6,10
7,38
8,39
9,11
9,12
9,13
9,14
10,11
10,12
10,13
10,14
11,22
12,22
13,15
13,16
13,17
14,15
14,16
14,17
15,38
16,18
16,19
16,20
16,21
17,18
17,19
17,20
17,21
18,22
19,38
20,39
21,22
21,23
21,24
21,25
21,26
21,27
22,28
22,29
22,30
22,31
22,32
22,33
22,34
23,38
24,38
25,34
25,37
26,34
26,37
27,34
27,37
28,35
28,37
29,35
29,36
30,35
31,35
31,37
32,38
33,37
33,39
34,35
34,36
34,40
35,38
36,39
37,40
37,41
38,42
38,43
38,44
38,45
39,46
39,47
39,48
39,49
39,50

<end>
